p cnf 20 20
10 13 -8 0
-11 3 -17 0
-3 -15 8 0
17 8 15 0
-1 20 -7 0
4 15 -8 0
14 1 2 0
-3 4 18 0
3 2 -13 0
-6 5 -18 0
20 -10 13 0
13 -3 -1 0
20 9 14 0
-10 -3 2 0
-1 2 -9 0
15 -12 4 0
4 2 -19 0
14 -20 -19 0
14 -19 12 0
9 -12 -17 0
